NAME          ClpDefau
ROWS
 N  OBJROW
 L  R_280_0
 L  R_280_1
 L  R_280_2
 L  R_280_3
 L  R_280_4
 L  R_280_5
 L  R_280_6
 L  R_280_7
 L  R_280_8
 L  R_280_9
 L  R_280_10
 L  R_280_11
 L  R_280_12
 L  R_280_13
 L  R_280_14
 L  R_280_15
 L  R_280_16
 L  R_280_17
 L  R_280_18
 L  R_280_19
 L  R_280_20
 L  R_280_21
 L  R_280_22
 L  R_280_23
 L  R_280_24
 L  R_280_25
 L  R_280_26
 L  R_280_27
 L  R_280_28
 L  R_280_29
 L  R_280_30
 L  R_280_31
COLUMNS
    x_0       OBJROW     -8.           R_280_2   23.         
    x_0       R_280_4   42.            R_280_5   66.         
    x_0       R_280_9   58.            R_280_18  97.         
    x_1       OBJROW     -12.          R_280_24  25.         
    x_1       R_280_26  74.            R_280_31  67.         
    x_2       OBJROW     -11.          R_280_0   35.         
    x_2       R_280_6   47.            R_280_9   15.         
    x_2       R_280_11  94.            R_280_14  21.         
    x_2       R_280_17  76.            R_280_18  32.         
    x_2       R_280_19  5.             R_280_20  79.         
    x_2       R_280_28  34.         
    x_3       OBJROW     -47.          R_280_4   58.         
    x_3       R_280_20  22.            R_280_21  82.         
    x_3       R_280_25  32.         
    x_4       OBJROW     -22.          R_280_4   5.          
    x_4       R_280_6   66.            R_280_9   24.         
    x_4       R_280_11  4.             R_280_23  54.         
    x_4       R_280_29  16.         
    x_5       OBJROW     -95.          R_280_2   88.         
    x_5       R_280_4   26.            R_280_7   58.         
    x_5       R_280_8   82.            R_280_12  37.         
    x_5       R_280_13  40.            R_280_15  97.         
    x_5       R_280_17  48.            R_280_22  16.         
    x_5       R_280_23  79.            R_280_28  85.         
    x_5       R_280_30  91.         
    x_6       OBJROW     -86.          R_280_19  46.         
    x_6       R_280_20  70.            R_280_21  54.         
    x_6       R_280_27  38.         
    x_7       OBJROW     -40.          R_280_0   37.         
    x_7       R_280_1   70.            R_280_8   21.         
    x_7       R_280_15  57.            R_280_21  36.         
    x_8       OBJROW     -33.          R_280_7   60.         
    x_8       R_280_11  13.            R_280_12  28.         
    x_8       R_280_17  72.            R_280_19  96.         
    x_8       R_280_24  87.            R_280_31  1.          
    x_9       OBJROW     -78.          R_280_3   76.         
    x_9       R_280_9   11.            R_280_19  64.         
    x_9       R_280_23  72.            R_280_25  5.          
    x_10      OBJROW     -28.          R_280_3   41.         
    x_10      R_280_10  82.            R_280_14  65.         
    x_10      R_280_22  49.            R_280_31  92.         
    x_11      OBJROW     -78.          R_280_4   31.         
    x_11      R_280_8   18.         
    x_12      OBJROW     -5.           R_280_0   46.         
    x_12      R_280_2   24.            R_280_6   22.         
    x_12      R_280_18  41.            R_280_24  47.         
    x_13      OBJROW     -75.          R_280_1   19.         
    x_13      R_280_2   9.             R_280_5   67.         
    x_13      R_280_7   83.            R_280_26  14.         
    x_13      R_280_29  88.            R_280_31  51.         
    x_14      OBJROW     -88.          R_280_2   14.         
    x_14      R_280_5   55.            R_280_7   84.         
    x_14      R_280_11  18.            R_280_13  65.         
    x_14      R_280_15  70.            R_280_21  63.         
    x_14      R_280_22  70.            R_280_23  14.         
    x_15      OBJROW     -21.          R_280_5   27.         
    x_15      R_280_6   26.            R_280_22  71.         
    x_15      R_280_26  18.            R_280_31  99.         
    x_16      OBJROW     -56.          R_280_2   41.         
    x_16      R_280_3   26.            R_280_5   89.         
    x_16      R_280_7   12.            R_280_23  90.         
    x_16      R_280_26  54.         
    x_17      OBJROW     -82.          R_280_9   61.         
    x_17      R_280_14  48.            R_280_26  4.          
    x_17      R_280_27  41.            R_280_28  69.         
    x_18      OBJROW     -51.          R_280_3   75.         
    x_18      R_280_6   99.            R_280_8   76.         
    x_18      R_280_11  62.            R_280_14  39.         
    x_18      R_280_31  59.         
    x_19      OBJROW     -93.          R_280_7   70.         
    x_19      R_280_9   91.            R_280_17  59.         
    x_19      R_280_20  62.            R_280_21  84.         
    x_19      R_280_22  42.            R_280_24  19.         
    x_19      R_280_27  72.            R_280_30  91.         
    x_19      R_280_31  40.         
    x_20      OBJROW     -66.          R_280_2   72.         
    x_20      R_280_7   45.            R_280_15  44.         
    x_20      R_280_21  85.            R_280_22  70.         
    x_20      R_280_27  79.            R_280_28  76.         
    x_21      OBJROW     -48.          R_280_0   3.          
    x_21      R_280_2   32.            R_280_6   47.         
    x_21      R_280_7   77.            R_280_11  89.         
    x_21      R_280_16  67.            R_280_21  17.         
    x_22      OBJROW     -70.          R_280_0   77.         
    x_22      R_280_3   33.            R_280_18  39.         
    x_22      R_280_20  71.            R_280_31  37.         
    x_23      OBJROW     -57.          R_280_8   77.         
    x_23      R_280_11  95.            R_280_20  86.         
    x_23      R_280_22  58.         
    x_24      OBJROW     -65.          R_280_4   59.         
    x_24      R_280_5   2.             R_280_10  42.         
    x_24      R_280_20  91.            R_280_21  43.         
    x_24      R_280_25  62.            R_280_30  39.         
    x_25      OBJROW     -35.          R_280_4   28.         
    x_25      R_280_9   31.            R_280_19  99.         
    x_25      R_280_22  26.            R_280_25  63.         
    x_25      R_280_28  27.         
    x_26      OBJROW     -5.           R_280_5   47.         
    x_26      R_280_10  60.            R_280_11  99.         
    x_26      R_280_14  19.            R_280_24  17.         
    x_26      R_280_25  40.            R_280_27  6.          
    x_26      R_280_30  30.         
    x_27      OBJROW     -4.           R_280_3   25.         
    x_27      R_280_4   29.            R_280_5   16.         
    x_27      R_280_8   92.            R_280_13  71.         
    x_27      R_280_17  10.            R_280_20  95.         
    x_27      R_280_27  95.            R_280_28  12.         
    x_28      OBJROW     -47.          R_280_0   39.         
    x_28      R_280_4   30.            R_280_9   24.         
    x_28      R_280_13  43.            R_280_19  6.          
    x_28      R_280_20  49.            R_280_21  99.         
    x_28      R_280_27  74.            R_280_29  85.         
    x_29      OBJROW     -60.          R_280_0   41.         
    x_29      R_280_1   31.            R_280_5   30.         
    x_29      R_280_6   14.            R_280_14  17.         
    x_29      R_280_17  20.            R_280_22  1.          
    x_29      R_280_25  1.             R_280_26  49.         
    x_29      R_280_29  35.         
    x_30      OBJROW     -41.          R_280_28  29.         
    x_31      OBJROW     -49.          R_280_3   10.         
    x_31      R_280_7   48.            R_280_11  72.         
    x_31      R_280_12  51.            R_280_26  80.         
    x_31      R_280_30  63.            R_280_31  42.         
RHS
    RHS       R_280_0   229.           R_280_1   410.        
    RHS       R_280_2   103.           R_280_3   319.        
    RHS       R_280_4   251.           R_280_5   174.        
    RHS       R_280_6   308.           R_280_7   104.        
    RHS       R_280_8   186.           R_280_9   268.        
    RHS       R_280_10  211.           R_280_11  307.        
    RHS       R_280_12  215.           R_280_13  425.        
    RHS       R_280_14  337.           R_280_15  208.        
    RHS       R_280_16  104.           R_280_17  244.        
    RHS       R_280_18  85.            R_280_19  293.        
    RHS       R_280_20  414.           R_280_21  195.        
    RHS       R_280_22  173.           R_280_23  276.        
    RHS       R_280_24  326.           R_280_25  148.        
    RHS       R_280_26  296.           R_280_27  231.        
    RHS       R_280_28  117.           R_280_29  416.        
    RHS       R_280_30  168.           R_280_31  107.        
BOUNDS
 UI BOUND     x_0       100.        
 UI BOUND     x_1       100.        
 UI BOUND     x_2       100.        
 UI BOUND     x_3       100.        
 UI BOUND     x_4       100.        
 UI BOUND     x_5       100.        
 UI BOUND     x_6       100.        
 UI BOUND     x_7       100.        
 UI BOUND     x_8       100.        
 UI BOUND     x_9       100.        
 UI BOUND     x_10      100.        
 UI BOUND     x_11      100.        
 UI BOUND     x_12      100.        
 UI BOUND     x_13      100.        
 UI BOUND     x_14      100.        
 UI BOUND     x_15      100.        
 UI BOUND     x_16      100.        
 UI BOUND     x_17      100.        
 UI BOUND     x_18      100.        
 UI BOUND     x_19      100.        
 UI BOUND     x_20      100.        
 UI BOUND     x_21      100.        
 UI BOUND     x_22      100.        
 UI BOUND     x_23      100.        
 UI BOUND     x_24      100.        
 UI BOUND     x_25      100.        
 UI BOUND     x_26      100.        
 UI BOUND     x_27      100.        
 UI BOUND     x_28      100.        
 UI BOUND     x_29      100.        
 UI BOUND     x_30      100.        
 UI BOUND     x_31      100.        
ENDATA
